
--- Job 8_RCPSP.gms Start 03/15/14 23:50:44 24.1.3 r41464 WEX-WEI x86_64/MS Windows
GAMS 24.1.3   Copyright (C) 1987-2013 GAMS Development. All rights reserved
Licensee: Kurslizenz                                     S130222/0001AN-GEN
          Leibniz University Hannover, Lehrstuhl fuer ProduktionswirtDC6657
          License for teaching and research at degree granting institutions
--- Starting compilation
--- 8_RCPSP.gms(127) 3 Mb
--- Starting execution: elapsed 0:00:00.004
--- 8_RCPSP.gms(122) 4 Mb
--- Generating MIP model RCPSP
--- 8_RCPSP.gms(124) 4 Mb
---   40 rows  75 columns  348 non-zeroes
---   74 discrete-columns
--- Executing CPLEX: elapsed 0:00:00.014

IBM ILOG CPLEX   24.1.3 r41464 Released Jul 26, 2013 WEI x86_64/MS Windows    
--- GAMS/Cplex licensed for continuous and discrete problems.
Cplex 12.5.1.0

Reading data...
Starting Cplex...
Tried aggregator 3 times.
MIP Presolve eliminated 33 rows and 68 columns.
MIP Presolve modified 62 coefficients.
Aggregator did 7 substitutions.
All rows and columns eliminated.
Presolve time = 0.00 sec. (0.18 ticks)

Root node processing (before b&c):
  Real time             =    0.00 sec. (0.20 ticks)
Sequential b&c:
  Real time             =    0.00 sec. (0.00 ticks)
                          ------------
Total (root+branch&cut) =    0.00 sec. (0.20 ticks)
MIP status(101): integer optimal solution
Cplex Time: 0.00sec (det. 0.20 ticks)
Fixing integer variables, and solving final LP...
Tried aggregator 1 time.
LP Presolve eliminated 40 rows and 75 columns.
All rows and columns eliminated.
Presolve time = 0.00 sec. (0.03 ticks)
Fixed MIP status(1): optimal
Cplex Time: 0.00sec (det. 0.05 ticks)

Proven optimal solution.

MIP Solution:           14.000000    (0 iterations, 0 nodes)
Final Solve:            14.000000    (0 iterations)

Best possible:          14.000000
Absolute gap:            0.000000
Relative gap:            0.000000

--- Restarting execution
--- 8_RCPSP.gms(124) 2 Mb
--- Reading solution for model RCPSP
--- Executing after solve: elapsed 0:00:00.179
--- 8_RCPSP.gms(125) 3 Mb
*** Status: Normal completion
--- Job 8_RCPSP.gms Stop 03/15/14 23:50:44 elapsed 0:00:00.180
